clingo version 5.4.0
Reading from tempSRTISolver.lp ...
Solving...
Answer: 1
matched(3,2) matched(2,3) matched(6,4) matched(8,5) matched(4,6) matched(1,7) matched(5,8) matched(7,1) matched(12,10) matched(9,11) matched(10,12) matched(11,9) matched(18,14) matched(19,15) matched(17,16) matched(16,17) matched(14,18) matched(15,19) matched(13,20) matched(20,13) matched(23,22) matched(22,23) matched(26,24) matched(28,25) matched(24,26) matched(21,27) matched(25,28) matched(27,21) matched(31,30) matched(30,31) matched(29,32) matched(32,29) matched(38,34) matched(39,35) matched(37,36) matched(36,37) matched(34,38) matched(35,39) matched(33,40) matched(40,33) matched(43,42) matched(42,43) matched(46,44) matched(48,45) matched(44,46) matched(41,47) matched(45,48) matched(47,41) matched(51,50) matched(50,51) matched(49,52) matched(52,49) matched(58,54) matched(59,55) matched(53,56) matched(60,57) matched(54,58) matched(55,59) matched(57,60) matched(56,53)
Optimization: 765
Answer: 2
matched(3,2) matched(2,3) matched(6,4) matched(8,5) matched(4,6) matched(1,7) matched(5,8) matched(7,1) matched(12,10) matched(9,11) matched(10,12) matched(11,9) matched(18,14) matched(19,15) matched(17,16) matched(16,17) matched(14,18) matched(15,19) matched(13,20) matched(20,13) matched(23,22) matched(22,23) matched(26,24) matched(28,25) matched(24,26) matched(21,27) matched(25,28) matched(27,21) matched(31,30) matched(30,31) matched(29,32) matched(32,29) matched(38,34) matched(39,35) matched(37,36) matched(36,37) matched(34,38) matched(35,39) matched(33,40) matched(40,33) matched(43,42) matched(42,43) matched(46,44) matched(48,45) matched(44,46) matched(41,47) matched(45,48) matched(47,41) matched(51,50) matched(50,51) matched(49,52) matched(52,49) matched(58,54) matched(59,55) matched(57,56) matched(56,57) matched(54,58) matched(55,59) matched(53,60) matched(60,53)
Optimization: 761
Answer: 3
matched(3,2) matched(2,3) matched(6,4) matched(8,5) matched(4,6) matched(1,7) matched(5,8) matched(7,1) matched(12,10) matched(9,11) matched(10,12) matched(11,9) matched(18,14) matched(19,15) matched(17,16) matched(16,17) matched(14,18) matched(15,19) matched(13,20) matched(20,13) matched(23,22) matched(22,23) matched(26,24) matched(28,25) matched(24,26) matched(21,27) matched(25,28) matched(27,21) matched(31,30) matched(30,31) matched(29,32) matched(32,29) matched(38,34) matched(39,35) matched(37,36) matched(36,37) matched(34,38) matched(35,39) matched(33,40) matched(40,33) matched(43,42) matched(42,43) matched(46,44) matched(48,45) matched(44,46) matched(41,47) matched(45,48) matched(47,41) matched(51,50) matched(50,51) matched(49,52) matched(52,49) matched(55,54) matched(54,55) matched(57,56) matched(56,57) matched(59,58) matched(58,59) matched(53,60) matched(60,53)
Optimization: 760
Answer: 4
matched(3,2) matched(2,3) matched(6,4) matched(8,5) matched(4,6) matched(1,7) matched(5,8) matched(7,1) matched(12,10) matched(9,11) matched(10,12) matched(11,9) matched(18,14) matched(19,15) matched(17,16) matched(16,17) matched(14,18) matched(15,19) matched(13,20) matched(20,13) matched(23,22) matched(22,23) matched(26,24) matched(28,25) matched(24,26) matched(21,27) matched(25,28) matched(27,21) matched(31,30) matched(30,31) matched(29,32) matched(32,29) matched(38,34) matched(39,35) matched(37,36) matched(36,37) matched(34,38) matched(35,39) matched(33,40) matched(40,33) matched(43,42) matched(42,43) matched(46,44) matched(48,45) matched(44,46) matched(41,47) matched(45,48) matched(47,41) matched(51,50) matched(50,51) matched(49,52) matched(52,49) matched(55,54) matched(54,55) matched(58,56) matched(60,57) matched(56,58) matched(53,59) matched(57,60) matched(59,53)
Optimization: 753
Answer: 5
matched(3,2) matched(2,3) matched(6,4) matched(8,5) matched(4,6) matched(1,7) matched(5,8) matched(7,1) matched(11,10) matched(10,11) matched(9,12) matched(12,9) matched(18,14) matched(19,15) matched(17,16) matched(16,17) matched(14,18) matched(15,19) matched(13,20) matched(20,13) matched(23,22) matched(22,23) matched(26,24) matched(28,25) matched(24,26) matched(21,27) matched(25,28) matched(27,21) matched(31,30) matched(30,31) matched(29,32) matched(32,29) matched(38,34) matched(39,35) matched(37,36) matched(36,37) matched(34,38) matched(35,39) matched(33,40) matched(40,33) matched(43,42) matched(42,43) matched(46,44) matched(48,45) matched(44,46) matched(41,47) matched(45,48) matched(47,41) matched(51,50) matched(50,51) matched(49,52) matched(52,49) matched(55,54) matched(54,55) matched(58,56) matched(60,57) matched(56,58) matched(53,59) matched(57,60) matched(59,53)
Optimization: 752
Answer: 6
matched(6,2) matched(7,3) matched(5,4) matched(4,5) matched(2,6) matched(3,7) matched(1,8) matched(8,1) matched(12,10) matched(9,11) matched(10,12) matched(11,9) matched(18,14) matched(19,15) matched(13,16) matched(20,17) matched(14,18) matched(15,19) matched(17,20) matched(16,13) matched(23,22) matched(22,23) matched(26,24) matched(28,25) matched(24,26) matched(21,27) matched(25,28) matched(27,21) matched(31,30) matched(30,31) matched(29,32) matched(32,29) matched(38,34) matched(39,35) matched(37,36) matched(36,37) matched(34,38) matched(35,39) matched(33,40) matched(40,33) matched(43,42) matched(42,43) matched(46,44) matched(48,45) matched(44,46) matched(41,47) matched(45,48) matched(47,41) matched(51,50) matched(50,51) matched(49,52) matched(52,49) matched(55,54) matched(54,55) matched(58,56) matched(60,57) matched(56,58) matched(53,59) matched(57,60) matched(59,53)
Optimization: 751
Answer: 7
matched(6,2) matched(7,3) matched(5,4) matched(4,5) matched(2,6) matched(3,7) matched(1,8) matched(8,1) matched(11,10) matched(10,11) matched(9,12) matched(12,9) matched(18,14) matched(19,15) matched(13,16) matched(20,17) matched(14,18) matched(15,19) matched(17,20) matched(16,13) matched(23,22) matched(22,23) matched(26,24) matched(28,25) matched(24,26) matched(21,27) matched(25,28) matched(27,21) matched(31,30) matched(30,31) matched(29,32) matched(32,29) matched(38,34) matched(39,35) matched(37,36) matched(36,37) matched(34,38) matched(35,39) matched(33,40) matched(40,33) matched(43,42) matched(42,43) matched(46,44) matched(48,45) matched(44,46) matched(41,47) matched(45,48) matched(47,41) matched(51,50) matched(50,51) matched(49,52) matched(52,49) matched(55,54) matched(54,55) matched(58,56) matched(60,57) matched(56,58) matched(53,59) matched(57,60) matched(59,53)
Optimization: 750
Answer: 8
matched(6,2) matched(7,3) matched(5,4) matched(4,5) matched(2,6) matched(3,7) matched(1,8) matched(8,1) matched(11,10) matched(10,11) matched(9,12) matched(12,9) matched(18,14) matched(19,15) matched(17,16) matched(16,17) matched(14,18) matched(15,19) matched(13,20) matched(20,13) matched(23,22) matched(22,23) matched(26,24) matched(28,25) matched(24,26) matched(21,27) matched(25,28) matched(27,21) matched(31,30) matched(30,31) matched(29,32) matched(32,29) matched(38,34) matched(39,35) matched(37,36) matched(36,37) matched(34,38) matched(35,39) matched(33,40) matched(40,33) matched(43,42) matched(42,43) matched(46,44) matched(48,45) matched(44,46) matched(41,47) matched(45,48) matched(47,41) matched(51,50) matched(50,51) matched(49,52) matched(52,49) matched(55,54) matched(54,55) matched(58,56) matched(60,57) matched(56,58) matched(53,59) matched(57,60) matched(59,53)
Optimization: 749
Answer: 9
matched(3,2) matched(2,3) matched(6,4) matched(8,5) matched(4,6) matched(1,7) matched(5,8) matched(7,1) matched(12,10) matched(9,11) matched(10,12) matched(11,9) matched(15,14) matched(14,15) matched(18,16) matched(20,17) matched(16,18) matched(13,19) matched(17,20) matched(19,13) matched(24,22) matched(25,23) matched(22,24) matched(23,25) matched(27,26) matched(26,27) matched(21,28) matched(28,21) matched(32,30) matched(29,31) matched(30,32) matched(31,29) matched(35,34) matched(34,35) matched(33,36) matched(40,37) matched(39,38) matched(38,39) matched(37,40) matched(36,33) matched(44,42) matched(45,43) matched(42,44) matched(43,45) matched(47,46) matched(46,47) matched(41,48) matched(48,41) matched(52,50) matched(49,51) matched(50,52) matched(51,49) matched(55,54) matched(54,55) matched(58,56) matched(60,57) matched(56,58) matched(53,59) matched(57,60) matched(59,53)
Optimization: 710
Answer: 10
matched(6,2) matched(7,3) matched(5,4) matched(4,5) matched(2,6) matched(3,7) matched(1,8) matched(8,1) matched(12,10) matched(9,11) matched(10,12) matched(11,9) matched(16,14) matched(17,15) matched(14,16) matched(15,17) matched(19,18) matched(18,19) matched(13,20) matched(20,13) matched(23,22) matched(22,23) matched(26,24) matched(28,25) matched(24,26) matched(21,27) matched(25,28) matched(27,21) matched(31,30) matched(30,31) matched(29,32) matched(32,29) matched(36,34) matched(37,35) matched(34,36) matched(35,37) matched(39,38) matched(38,39) matched(33,40) matched(40,33) matched(43,42) matched(42,43) matched(41,44) matched(48,45) matched(47,46) matched(46,47) matched(45,48) matched(44,41) matched(51,50) matched(50,51) matched(49,52) matched(52,49) matched(55,54) matched(54,55) matched(58,56) matched(60,57) matched(56,58) matched(53,59) matched(57,60) matched(59,53)
Optimization: 709
Answer: 11
matched(6,2) matched(7,3) matched(5,4) matched(4,5) matched(2,6) matched(3,7) matched(1,8) matched(8,1) matched(11,10) matched(10,11) matched(9,12) matched(12,9) matched(16,14) matched(17,15) matched(14,16) matched(15,17) matched(19,18) matched(18,19) matched(13,20) matched(20,13) matched(23,22) matched(22,23) matched(26,24) matched(28,25) matched(24,26) matched(21,27) matched(25,28) matched(27,21) matched(31,30) matched(30,31) matched(29,32) matched(32,29) matched(36,34) matched(37,35) matched(34,36) matched(35,37) matched(39,38) matched(38,39) matched(33,40) matched(40,33) matched(43,42) matched(42,43) matched(41,44) matched(48,45) matched(47,46) matched(46,47) matched(45,48) matched(44,41) matched(51,50) matched(50,51) matched(49,52) matched(52,49) matched(55,54) matched(54,55) matched(58,56) matched(60,57) matched(56,58) matched(53,59) matched(57,60) matched(59,53)
Optimization: 708
Answer: 12
matched(3,2) matched(2,3) matched(5,4) matched(4,5) matched(7,6) matched(6,7) matched(1,8) matched(8,1) matched(12,10) matched(9,11) matched(10,12) matched(11,9) matched(15,14) matched(14,15) matched(13,16) matched(20,17) matched(19,18) matched(18,19) matched(17,20) matched(16,13) matched(24,22) matched(25,23) matched(22,24) matched(23,25) matched(27,26) matched(26,27) matched(21,28) matched(28,21) matched(32,30) matched(29,31) matched(30,32) matched(31,29) matched(35,34) matched(34,35) matched(33,36) matched(40,37) matched(39,38) matched(38,39) matched(37,40) matched(36,33) matched(44,42) matched(45,43) matched(42,44) matched(43,45) matched(47,46) matched(46,47) matched(41,48) matched(48,41) matched(51,50) matched(50,51) matched(49,52) matched(52,49) matched(58,54) matched(59,55) matched(57,56) matched(56,57) matched(54,58) matched(55,59) matched(53,60) matched(60,53)
Optimization: 706
Answer: 13
matched(6,2) matched(7,3) matched(1,4) matched(8,5) matched(2,6) matched(3,7) matched(5,8) matched(4,1) matched(12,10) matched(9,11) matched(10,12) matched(11,9) matched(15,14) matched(14,15) matched(13,16) matched(20,17) matched(19,18) matched(18,19) matched(17,20) matched(16,13) matched(24,22) matched(25,23) matched(22,24) matched(23,25) matched(27,26) matched(26,27) matched(21,28) matched(28,21) matched(32,30) matched(29,31) matched(30,32) matched(31,29) matched(36,34) matched(37,35) matched(34,36) matched(35,37) matched(39,38) matched(38,39) matched(33,40) matched(40,33) matched(44,42) matched(45,43) matched(42,44) matched(43,45) matched(47,46) matched(46,47) matched(41,48) matched(48,41) matched(51,50) matched(50,51) matched(49,52) matched(52,49) matched(55,54) matched(54,55) matched(53,56) matched(60,57) matched(59,58) matched(58,59) matched(57,60) matched(56,53)
Optimization: 702
Answer: 14
matched(6,2) matched(7,3) matched(1,4) matched(8,5) matched(2,6) matched(3,7) matched(5,8) matched(4,1) matched(12,10) matched(9,11) matched(10,12) matched(11,9) matched(15,14) matched(14,15) matched(13,16) matched(20,17) matched(19,18) matched(18,19) matched(17,20) matched(16,13) matched(24,22) matched(25,23) matched(22,24) matched(23,25) matched(27,26) matched(26,27) matched(21,28) matched(28,21) matched(32,30) matched(29,31) matched(30,32) matched(31,29) matched(36,34) matched(37,35) matched(34,36) matched(35,37) matched(39,38) matched(38,39) matched(33,40) matched(40,33) matched(44,42) matched(45,43) matched(42,44) matched(43,45) matched(47,46) matched(46,47) matched(41,48) matched(48,41) matched(51,50) matched(50,51) matched(49,52) matched(52,49) matched(55,54) matched(54,55) matched(58,56) matched(60,57) matched(56,58) matched(53,59) matched(57,60) matched(59,53)
Optimization: 691
Answer: 15
matched(3,2) matched(2,3) matched(6,4) matched(8,5) matched(4,6) matched(1,7) matched(5,8) matched(7,1) matched(12,10) matched(9,11) matched(10,12) matched(11,9) matched(15,14) matched(14,15) matched(13,16) matched(20,17) matched(19,18) matched(18,19) matched(17,20) matched(16,13) matched(24,22) matched(25,23) matched(22,24) matched(23,25) matched(27,26) matched(26,27) matched(21,28) matched(28,21) matched(32,30) matched(29,31) matched(30,32) matched(31,29) matched(36,34) matched(37,35) matched(34,36) matched(35,37) matched(39,38) matched(38,39) matched(33,40) matched(40,33) matched(44,42) matched(45,43) matched(42,44) matched(43,45) matched(47,46) matched(46,47) matched(41,48) matched(48,41) matched(51,50) matched(50,51) matched(49,52) matched(52,49) matched(55,54) matched(54,55) matched(58,56) matched(60,57) matched(56,58) matched(53,59) matched(57,60) matched(59,53)
Optimization: 690
Answer: 16
matched(6,2) matched(7,3) matched(5,4) matched(4,5) matched(2,6) matched(3,7) matched(1,8) matched(8,1) matched(12,10) matched(9,11) matched(10,12) matched(11,9) matched(15,14) matched(14,15) matched(17,16) matched(16,17) matched(19,18) matched(18,19) matched(13,20) matched(20,13) matched(24,22) matched(25,23) matched(22,24) matched(23,25) matched(27,26) matched(26,27) matched(21,28) matched(28,21) matched(32,30) matched(29,31) matched(30,32) matched(31,29) matched(36,34) matched(37,35) matched(34,36) matched(35,37) matched(39,38) matched(38,39) matched(33,40) matched(40,33) matched(44,42) matched(45,43) matched(42,44) matched(43,45) matched(47,46) matched(46,47) matched(41,48) matched(48,41) matched(52,50) matched(49,51) matched(50,52) matched(51,49) matched(55,54) matched(54,55) matched(58,56) matched(60,57) matched(56,58) matched(53,59) matched(57,60) matched(59,53)
Optimization: 688
Answer: 17
matched(6,2) matched(7,3) matched(5,4) matched(4,5) matched(2,6) matched(3,7) matched(1,8) matched(8,1) matched(11,10) matched(10,11) matched(9,12) matched(12,9) matched(15,14) matched(14,15) matched(17,16) matched(16,17) matched(19,18) matched(18,19) matched(13,20) matched(20,13) matched(24,22) matched(25,23) matched(22,24) matched(23,25) matched(27,26) matched(26,27) matched(21,28) matched(28,21) matched(32,30) matched(29,31) matched(30,32) matched(31,29) matched(36,34) matched(37,35) matched(34,36) matched(35,37) matched(39,38) matched(38,39) matched(33,40) matched(40,33) matched(44,42) matched(45,43) matched(42,44) matched(43,45) matched(47,46) matched(46,47) matched(41,48) matched(48,41) matched(52,50) matched(49,51) matched(50,52) matched(51,49) matched(55,54) matched(54,55) matched(58,56) matched(60,57) matched(56,58) matched(53,59) matched(57,60) matched(59,53)
Optimization: 687
Answer: 18
matched(6,2) matched(7,3) matched(5,4) matched(4,5) matched(2,6) matched(3,7) matched(1,8) matched(8,1) matched(11,10) matched(10,11) matched(9,12) matched(12,9) matched(15,14) matched(14,15) matched(17,16) matched(16,17) matched(19,18) matched(18,19) matched(13,20) matched(20,13) matched(24,22) matched(25,23) matched(22,24) matched(23,25) matched(27,26) matched(26,27) matched(21,28) matched(28,21) matched(32,30) matched(29,31) matched(30,32) matched(31,29) matched(36,34) matched(37,35) matched(34,36) matched(35,37) matched(39,38) matched(38,39) matched(33,40) matched(40,33) matched(44,42) matched(45,43) matched(42,44) matched(43,45) matched(47,46) matched(46,47) matched(41,48) matched(48,41) matched(51,50) matched(50,51) matched(49,52) matched(52,49) matched(55,54) matched(54,55) matched(58,56) matched(60,57) matched(56,58) matched(53,59) matched(57,60) matched(59,53)
Optimization: 685
OPTIMUM FOUND

Models       : 18
  Optimum    : yes
Optimization : 685
Calls        : 1
Time         : 11.245s (Solving: 11.06s 1st Model: 0.00s Unsat: 8.84s)
CPU Time     : 11.233s
